27	3

10	10	10	

0	0	0	0	3	2	3	4	
3	3	5	2	2	7	8	
4	5	4	3	2	5	6	
2	5	2	2	2	5	7	
4	4	1	4	2	9	10	
3	5	5	4	2	9	11	
5	3	5	2	2	11	12	
3	2	4	4	2	9	10	
9	3	2	2	3	13	14	15	
2	3	2	4	1	13	
6	3	3	2	2	13	16	
1	4	1	4	1	13	
3	1	4	4	2	17	18	
7	2	2	2	1	17	
3	5	5	4	2	17	20	
6	1	5	4	1	19	
4	4	5	4	2	22	23	
5	3	2	3	2	22	24	
1	5	3	3	1	21	
3	2	4	6	1	21	
1	1	6	2	1	26	
4	3	2	1	1	25	
3	1	0	4	1	25	
3	2	2	1	1	26	
2	0	1	3	1	27	
6	2	2	2	1	27	
0	0	0	0	0	
